\ Model Cl_25_Ins_1.lp
\ LP format - for model browsing. Use MPS format to capture full model detail.
Maximize
 
Subject To
 obj1: y[0] = 0
 obj2: y[1] = 0
 obj1_Exp: - y[0] + 99 x[0] + 97 x[1] + 95 x[2] + 84 x[3] + 82 x[4]
   + 82 x[5] + 79 x[6] + 78 x[7] + 78 x[8] + 77 x[9] + 73 x[10] + 73 x[11]
   + 70 x[12] + 67 x[13] + 60 x[14] + 54 x[15] + 51 x[16] + 50 x[17]
   + 43 x[18] + 42 x[19] + 33 x[20] + 24 x[21] + 18 x[22] + 15 x[23]
   + 6 x[24] = 0
 obj2_Exp: - y[1] + 74 x[0] + 80 x[1] + 33 x[2] + 3 x[3] + 67 x[4]
   + 78 x[5] + 50 x[6] + 4 x[7] + 71 x[8] + 59 x[9] + 44 x[10] + 90 x[11]
   + 36 x[12] + 57 x[13] + 16 x[14] + 15 x[15] + 14 x[16] + 2 x[17]
   + 34 x[18] + 5 x[19] + 76 x[20] + 74 x[21] + 24 x[22] + 26 x[23]
   + 90 x[24] = 0
 Budget: 109 x[0] + 107 x[1] + 105 x[2] + 94 x[3] + 92 x[4] + 92 x[5]
   + 89 x[6] + 88 x[7] + 88 x[8] + 87 x[9] + 83 x[10] + 83 x[11] + 80 x[12]
   + 77 x[13] + 70 x[14] + 64 x[15] + 61 x[16] + 60 x[17] + 53 x[18]
   + 52 x[19] + 43 x[20] + 34 x[21] + 28 x[22] + 25 x[23] + 16 x[24]
   <= 836
Bounds
Binaries
 x[0] x[1] x[2] x[3] x[4] x[5] x[6] x[7] x[8] x[9] x[10] x[11] x[12] x[13]
 x[14] x[15] x[16] x[17] x[18] x[19] x[20] x[21] x[22] x[23] x[24]
Generals
 y[0] y[1]
End
